c File: data_files/evolved_graphs/g3688.col
c
c Auto generated graph
c
p edge 100 2186
e 1 2
e 1 4
e 1 7
e 1 8
e 1 10
e 1 17
e 1 19
e 1 21
e 1 24
e 1 25
e 1 28
e 1 29
e 1 31
e 1 35
e 1 36
e 1 39
e 1 41
e 1 43
e 1 44
e 1 48
e 1 49
e 1 50
e 1 52
e 1 53
e 1 55
e 1 59
e 1 61
e 1 63
e 1 64
e 1 73
e 1 75
e 1 81
e 1 84
e 1 87
e 1 89
e 2 4
e 2 6
e 2 10
e 2 11
e 2 13
e 2 15
e 2 16
e 2 17
e 2 18
e 2 22
e 2 23
e 2 25
e 2 27
e 2 29
e 2 30
e 2 33
e 2 38
e 2 40
e 2 41
e 2 44
e 2 46
e 2 47
e 2 50
e 2 52
e 2 54
e 2 55
e 2 56
e 2 59
e 2 60
e 2 61
e 2 62
e 2 66
e 2 67
e 2 68
e 2 69
e 2 70
e 2 76
e 2 77
e 2 78
e 2 80
e 2 82
e 2 84
e 2 85
e 2 86
e 2 88
e 2 92
e 3 4
e 3 5
e 3 7
e 3 8
e 3 9
e 3 17
e 3 19
e 3 28
e 3 36
e 3 37
e 3 39
e 3 41
e 3 42
e 3 45
e 3 46
e 3 51
e 3 54
e 3 55
e 3 56
e 3 58
e 3 63
e 3 64
e 3 65
e 3 68
e 3 71
e 3 75
e 3 76
e 3 77
e 3 80
e 3 82
e 3 84
e 3 85
e 3 87
e 3 88
e 3 90
e 3 97
e 4 5
e 4 6
e 4 7
e 4 9
e 4 10
e 4 13
e 4 14
e 4 15
e 4 23
e 4 26
e 4 29
e 4 32
e 4 40
e 4 41
e 4 43
e 4 47
e 4 50
e 4 51
e 4 55
e 4 57
e 4 60
e 4 61
e 4 63
e 4 65
e 4 66
e 4 69
e 4 73
e 4 77
e 4 78
e 4 79
e 4 83
e 4 90
e 4 92
e 5 8
e 5 9
e 5 15
e 5 20
e 5 22
e 5 26
e 5 28
e 5 29
e 5 30
e 5 32
e 5 34
e 5 35
e 5 36
e 5 37
e 5 39
e 5 40
e 5 41
e 5 43
e 5 45
e 5 46
e 5 47
e 5 49
e 5 50
e 5 51
e 5 52
e 5 54
e 5 55
e 5 57
e 5 58
e 5 59
e 5 62
e 5 63
e 5 66
e 5 68
e 5 69
e 5 72
e 5 73
e 5 74
e 5 75
e 5 76
e 5 79
e 5 82
e 5 83
e 5 86
e 5 88
e 5 89
e 6 8
e 6 9
e 6 13
e 6 14
e 6 21
e 6 22
e 6 24
e 6 25
e 6 26
e 6 28
e 6 29
e 6 30
e 6 32
e 6 35
e 6 39
e 6 40
e 6 42
e 6 44
e 6 46
e 6 47
e 6 52
e 6 53
e 6 54
e 6 56
e 6 61
e 6 64
e 6 65
e 6 74
e 6 75
e 6 76
e 6 82
e 6 83
e 6 84
e 6 85
e 6 86
e 6 87
e 6 88
e 6 90
e 6 91
e 7 9
e 7 11
e 7 13
e 7 16
e 7 17
e 7 19
e 7 20
e 7 22
e 7 23
e 7 25
e 7 26
e 7 27
e 7 30
e 7 31
e 7 34
e 7 35
e 7 36
e 7 37
e 7 39
e 7 43
e 7 44
e 7 47
e 7 49
e 7 51
e 7 53
e 7 56
e 7 58
e 7 63
e 7 67
e 7 68
e 7 69
e 7 70
e 7 74
e 7 75
e 7 77
e 7 81
e 7 82
e 7 83
e 7 85
e 7 86
e 7 89
e 7 96
e 7 97
e 7 100
e 8 9
e 8 10
e 8 13
e 8 14
e 8 25
e 8 29
e 8 31
e 8 32
e 8 35
e 8 42
e 8 43
e 8 46
e 8 47
e 8 48
e 8 50
e 8 51
e 8 53
e 8 55
e 8 56
e 8 57
e 8 63
e 8 64
e 8 67
e 8 68
e 8 69
e 8 74
e 8 76
e 8 79
e 8 80
e 8 81
e 8 84
e 8 85
e 8 86
e 8 91
e 9 10
e 9 11
e 9 13
e 9 14
e 9 16
e 9 17
e 9 18
e 9 19
e 9 20
e 9 23
e 9 24
e 9 26
e 9 28
e 9 31
e 9 33
e 9 34
e 9 37
e 9 38
e 9 42
e 9 43
e 9 45
e 9 46
e 9 50
e 9 53
e 9 54
e 9 55
e 9 60
e 9 61
e 9 62
e 9 65
e 9 67
e 9 68
e 9 69
e 9 70
e 9 71
e 9 72
e 9 75
e 9 76
e 9 77
e 9 79
e 9 87
e 9 88
e 9 90
e 10 11
e 10 14
e 10 18
e 10 19
e 10 21
e 10 22
e 10 23
e 10 24
e 10 26
e 10 27
e 10 29
e 10 33
e 10 57
e 10 61
e 10 63
e 10 70
e 10 80
e 10 83
e 10 86
e 10 88
e 10 89
e 10 93
e 10 100
e 11 12
e 11 13
e 11 14
e 11 15
e 11 16
e 11 18
e 11 19
e 11 21
e 11 23
e 11 24
e 11 25
e 11 26
e 11 38
e 11 40
e 11 41
e 11 56
e 11 70
e 11 75
e 11 82
e 11 88
e 12 15
e 12 16
e 12 19
e 12 20
e 12 22
e 12 23
e 12 24
e 12 25
e 12 45
e 12 86
e 12 89
e 13 14
e 13 15
e 13 16
e 13 17
e 13 18
e 13 19
e 13 20
e 13 21
e 13 23
e 13 24
e 13 26
e 13 30
e 13 31
e 13 33
e 13 39
e 13 40
e 13 58
e 13 61
e 13 97
e 14 15
e 14 16
e 14 19
e 14 23
e 14 24
e 14 26
e 14 36
e 14 46
e 14 56
e 14 59
e 14 76
e 14 82
e 14 97
e 15 17
e 15 18
e 15 19
e 15 20
e 15 21
e 15 26
e 15 41
e 15 71
e 15 78
e 15 86
e 15 87
e 15 96
e 15 99
e 16 17
e 16 18
e 16 21
e 16 23
e 16 24
e 16 26
e 16 29
e 16 34
e 16 48
e 16 49
e 16 51
e 16 53
e 16 80
e 16 82
e 16 95
e 17 18
e 17 19
e 17 21
e 17 25
e 17 26
e 17 27
e 17 29
e 17 30
e 17 32
e 17 35
e 17 45
e 17 51
e 17 52
e 17 68
e 17 72
e 17 93
e 17 94
e 18 19
e 18 22
e 18 23
e 18 24
e 18 25
e 18 26
e 18 29
e 18 39
e 18 43
e 18 44
e 18 55
e 18 58
e 18 67
e 18 70
e 18 71
e 18 77
e 18 78
e 18 80
e 18 89
e 18 90
e 18 96
e 18 100
e 19 20
e 19 23
e 19 24
e 19 30
e 19 48
e 19 65
e 19 67
e 19 72
e 19 80
e 19 84
e 19 85
e 19 87
e 19 93
e 20 23
e 20 24
e 20 28
e 20 43
e 20 53
e 20 60
e 20 62
e 20 69
e 20 73
e 20 75
e 20 76
e 20 79
e 20 83
e 20 88
e 20 96
e 20 97
e 21 22
e 21 23
e 21 24
e 21 25
e 21 30
e 21 32
e 21 36
e 21 39
e 21 43
e 21 48
e 21 59
e 21 69
e 21 72
e 21 73
e 21 74
e 21 81
e 21 96
e 21 98
e 21 99
e 22 23
e 22 24
e 22 25
e 22 46
e 22 51
e 22 56
e 22 65
e 22 68
e 22 90
e 22 91
e 23 24
e 23 26
e 23 40
e 23 51
e 23 65
e 23 69
e 23 73
e 23 98
e 24 29
e 24 30
e 24 61
e 24 67
e 24 82
e 24 83
e 24 90
e 24 97
e 25 31
e 25 32
e 25 33
e 25 35
e 25 36
e 25 42
e 25 57
e 25 77
e 25 84
e 26 28
e 26 32
e 26 44
e 26 47
e 26 49
e 26 51
e 26 63
e 26 69
e 26 87
e 26 96
e 27 29
e 27 30
e 27 34
e 27 36
e 27 37
e 27 38
e 27 40
e 27 42
e 27 43
e 27 44
e 27 46
e 27 49
e 27 50
e 27 51
e 27 53
e 27 56
e 27 58
e 27 60
e 27 63
e 27 64
e 27 65
e 27 69
e 27 70
e 27 71
e 27 72
e 27 77
e 27 78
e 27 79
e 27 80
e 27 81
e 27 82
e 27 84
e 27 88
e 27 89
e 27 90
e 27 91
e 27 92
e 27 93
e 27 94
e 27 95
e 27 97
e 27 100
e 28 29
e 28 31
e 28 33
e 28 35
e 28 37
e 28 39
e 28 41
e 28 44
e 28 45
e 28 46
e 28 47
e 28 48
e 28 49
e 28 50
e 28 51
e 28 52
e 28 54
e 28 56
e 28 63
e 28 64
e 28 65
e 28 67
e 28 68
e 28 69
e 28 71
e 28 74
e 28 75
e 28 78
e 28 80
e 28 81
e 28 82
e 28 83
e 28 84
e 28 85
e 28 86
e 28 89
e 28 90
e 28 92
e 28 93
e 28 94
e 28 96
e 28 97
e 28 99
e 29 31
e 29 33
e 29 34
e 29 35
e 29 37
e 29 38
e 29 39
e 29 40
e 29 42
e 29 43
e 29 44
e 29 47
e 29 50
e 29 51
e 29 52
e 29 53
e 29 54
e 29 55
e 29 58
e 29 59
e 29 61
e 29 63
e 29 66
e 29 67
e 29 69
e 29 73
e 29 76
e 29 79
e 29 84
e 29 85
e 29 86
e 29 87
e 29 88
e 29 90
e 29 94
e 29 95
e 29 100
e 30 31
e 30 32
e 30 33
e 30 35
e 30 36
e 30 37
e 30 39
e 30 40
e 30 41
e 30 43
e 30 44
e 30 45
e 30 46
e 30 47
e 30 48
e 30 49
e 30 50
e 30 52
e 30 53
e 30 54
e 30 56
e 30 57
e 30 59
e 30 61
e 30 62
e 30 63
e 30 64
e 30 65
e 30 66
e 30 67
e 30 69
e 30 70
e 30 71
e 30 74
e 30 77
e 30 78
e 30 83
e 30 85
e 30 86
e 30 88
e 30 91
e 30 92
e 30 94
e 30 96
e 30 100
e 31 33
e 31 34
e 31 35
e 31 37
e 31 38
e 31 39
e 31 42
e 31 43
e 31 44
e 31 45
e 31 46
e 31 47
e 31 48
e 31 49
e 31 50
e 31 53
e 31 57
e 31 59
e 31 61
e 31 62
e 31 63
e 31 65
e 31 66
e 31 67
e 31 68
e 31 71
e 31 72
e 31 73
e 31 77
e 31 80
e 31 81
e 31 83
e 31 84
e 31 85
e 31 87
e 31 90
e 31 91
e 31 93
e 31 98
e 31 100
e 32 35
e 32 36
e 32 38
e 32 39
e 32 40
e 32 42
e 32 43
e 32 45
e 32 48
e 32 50
e 32 52
e 32 54
e 32 56
e 32 57
e 32 60
e 32 62
e 32 65
e 32 66
e 32 67
e 32 69
e 32 70
e 32 71
e 32 72
e 32 73
e 32 75
e 32 79
e 32 81
e 32 82
e 32 83
e 32 85
e 32 86
e 32 87
e 32 88
e 32 89
e 32 90
e 32 91
e 32 92
e 32 93
e 32 95
e 32 96
e 32 97
e 32 99
e 32 100
e 33 34
e 33 38
e 33 41
e 33 43
e 33 45
e 33 46
e 33 48
e 33 49
e 33 50
e 33 55
e 33 56
e 33 57
e 33 58
e 33 59
e 33 60
e 33 61
e 33 62
e 33 66
e 33 67
e 33 68
e 33 69
e 33 70
e 33 73
e 33 74
e 33 75
e 33 76
e 33 77
e 33 80
e 33 82
e 33 83
e 33 84
e 33 85
e 33 88
e 33 89
e 33 91
e 33 92
e 33 93
e 33 94
e 34 36
e 34 37
e 34 38
e 34 39
e 34 44
e 34 48
e 34 49
e 34 50
e 34 51
e 34 53
e 34 54
e 34 56
e 34 57
e 34 58
e 34 59
e 34 62
e 34 64
e 34 67
e 34 70
e 34 71
e 34 75
e 34 76
e 34 77
e 34 79
e 34 80
e 34 81
e 34 83
e 34 86
e 34 87
e 34 89
e 34 91
e 34 94
e 34 96
e 34 97
e 34 99
e 35 36
e 35 40
e 35 41
e 35 43
e 35 47
e 35 49
e 35 50
e 35 51
e 35 53
e 35 55
e 35 58
e 35 60
e 35 61
e 35 62
e 35 64
e 35 65
e 35 66
e 35 67
e 35 68
e 35 72
e 35 73
e 35 75
e 35 77
e 35 78
e 35 81
e 35 82
e 35 86
e 35 87
e 35 90
e 35 91
e 35 93
e 35 95
e 35 98
e 35 100
e 36 38
e 36 39
e 36 41
e 36 42
e 36 43
e 36 45
e 36 49
e 36 50
e 36 53
e 36 55
e 36 57
e 36 59
e 36 61
e 36 62
e 36 64
e 36 65
e 36 66
e 36 68
e 36 69
e 36 70
e 36 71
e 36 72
e 36 73
e 36 77
e 36 79
e 36 80
e 36 82
e 36 84
e 36 87
e 36 89
e 36 91
e 36 92
e 36 97
e 36 98
e 37 41
e 37 42
e 37 44
e 37 45
e 37 46
e 37 49
e 37 50
e 37 51
e 37 56
e 37 57
e 37 58
e 37 60
e 37 61
e 37 62
e 37 63
e 37 64
e 37 66
e 37 67
e 37 71
e 37 72
e 37 74
e 37 75
e 37 76
e 37 77
e 37 78
e 37 79
e 37 80
e 37 81
e 37 82
e 37 83
e 37 89
e 37 91
e 37 92
e 37 95
e 37 96
e 37 97
e 37 100
e 38 39
e 38 41
e 38 43
e 38 44
e 38 45
e 38 48
e 38 50
e 38 51
e 38 54
e 38 55
e 38 56
e 38 57
e 38 59
e 38 63
e 38 65
e 38 67
e 38 68
e 38 69
e 38 70
e 38 74
e 38 75
e 38 76
e 38 78
e 38 79
e 38 83
e 38 84
e 38 85
e 38 86
e 38 88
e 38 91
e 38 93
e 38 94
e 38 99
e 38 100
e 39 45
e 39 46
e 39 50
e 39 52
e 39 53
e 39 57
e 39 58
e 39 60
e 39 61
e 39 66
e 39 67
e 39 68
e 39 73
e 39 74
e 39 75
e 39 78
e 39 79
e 39 82
e 39 85
e 39 86
e 39 87
e 39 89
e 39 90
e 39 92
e 39 93
e 39 95
e 39 97
e 39 99
e 39 100
e 40 43
e 40 44
e 40 45
e 40 47
e 40 48
e 40 49
e 40 50
e 40 51
e 40 53
e 40 54
e 40 57
e 40 58
e 40 59
e 40 60
e 40 61
e 40 63
e 40 66
e 40 67
e 40 68
e 40 70
e 40 71
e 40 72
e 40 73
e 40 75
e 40 76
e 40 77
e 40 79
e 40 80
e 40 81
e 40 83
e 40 86
e 40 88
e 40 89
e 40 94
e 40 96
e 40 100
e 41 42
e 41 43
e 41 46
e 41 51
e 41 53
e 41 54
e 41 55
e 41 56
e 41 59
e 41 62
e 41 63
e 41 66
e 41 67
e 41 69
e 41 70
e 41 71
e 41 72
e 41 73
e 41 74
e 41 76
e 41 77
e 41 78
e 41 80
e 41 83
e 41 84
e 41 85
e 41 86
e 41 87
e 41 88
e 41 89
e 41 90
e 41 92
e 41 93
e 41 94
e 41 95
e 41 96
e 41 97
e 41 98
e 41 99
e 41 100
e 42 43
e 42 44
e 42 46
e 42 47
e 42 48
e 42 49
e 42 52
e 42 54
e 42 55
e 42 56
e 42 57
e 42 59
e 42 60
e 42 61
e 42 62
e 42 64
e 42 65
e 42 66
e 42 70
e 42 71
e 42 72
e 42 73
e 42 74
e 42 75
e 42 76
e 42 77
e 42 78
e 42 79
e 42 80
e 42 82
e 42 83
e 42 85
e 42 86
e 42 87
e 42 88
e 42 90
e 42 91
e 42 93
e 42 94
e 42 98
e 42 100
e 43 44
e 43 45
e 43 46
e 43 49
e 43 50
e 43 51
e 43 54
e 43 55
e 43 58
e 43 59
e 43 63
e 43 64
e 43 65
e 43 66
e 43 68
e 43 69
e 43 70
e 43 71
e 43 72
e 43 73
e 43 74
e 43 75
e 43 77
e 43 78
e 43 79
e 43 80
e 43 81
e 43 83
e 43 84
e 43 85
e 43 87
e 43 90
e 43 91
e 43 92
e 43 94
e 43 95
e 43 98
e 43 99
e 43 100
e 44 45
e 44 48
e 44 49
e 44 50
e 44 51
e 44 53
e 44 56
e 44 58
e 44 61
e 44 68
e 44 69
e 44 71
e 44 72
e 44 74
e 44 76
e 44 77
e 44 79
e 44 81
e 44 82
e 44 83
e 44 84
e 44 85
e 44 86
e 44 91
e 44 93
e 44 94
e 44 98
e 44 99
e 45 46
e 45 47
e 45 48
e 45 50
e 45 53
e 45 55
e 45 57
e 45 58
e 45 61
e 45 62
e 45 64
e 45 67
e 45 68
e 45 73
e 45 76
e 45 77
e 45 78
e 45 79
e 45 80
e 45 84
e 45 85
e 45 87
e 45 88
e 45 91
e 45 92
e 45 93
e 45 96
e 45 97
e 45 98
e 45 99
e 46 47
e 46 49
e 46 50
e 46 53
e 46 56
e 46 58
e 46 60
e 46 61
e 46 62
e 46 63
e 46 64
e 46 69
e 46 71
e 46 72
e 46 74
e 46 75
e 46 76
e 46 77
e 46 80
e 46 84
e 46 87
e 46 90
e 46 91
e 46 92
e 46 93
e 46 94
e 46 95
e 46 96
e 46 97
e 46 98
e 46 99
e 47 48
e 47 49
e 47 50
e 47 51
e 47 55
e 47 56
e 47 58
e 47 62
e 47 63
e 47 64
e 47 65
e 47 70
e 47 72
e 47 73
e 47 74
e 47 75
e 47 77
e 47 78
e 47 80
e 47 82
e 47 84
e 47 85
e 47 89
e 47 90
e 47 92
e 47 93
e 47 94
e 47 95
e 47 96
e 47 100
e 48 50
e 48 52
e 48 53
e 48 54
e 48 55
e 48 56
e 48 58
e 48 59
e 48 61
e 48 64
e 48 66
e 48 67
e 48 68
e 48 69
e 48 70
e 48 71
e 48 74
e 48 76
e 48 77
e 48 80
e 48 81
e 48 82
e 48 83
e 48 85
e 48 87
e 48 88
e 48 89
e 48 90
e 48 91
e 48 93
e 48 94
e 48 95
e 48 97
e 48 99
e 48 100
e 49 50
e 49 52
e 49 53
e 49 55
e 49 57
e 49 59
e 49 61
e 49 62
e 49 63
e 49 65
e 49 66
e 49 68
e 49 69
e 49 70
e 49 71
e 49 72
e 49 73
e 49 74
e 49 75
e 49 76
e 49 77
e 49 78
e 49 80
e 49 82
e 49 83
e 49 84
e 49 85
e 49 86
e 49 88
e 49 89
e 49 90
e 49 91
e 49 93
e 49 94
e 49 95
e 49 96
e 49 99
e 50 52
e 50 53
e 50 58
e 50 61
e 50 63
e 50 65
e 50 66
e 50 68
e 50 69
e 50 70
e 50 72
e 50 74
e 50 76
e 50 77
e 50 78
e 50 79
e 50 80
e 50 82
e 50 83
e 50 84
e 50 85
e 50 88
e 50 89
e 50 90
e 50 91
e 50 93
e 50 94
e 50 95
e 50 96
e 50 97
e 50 98
e 50 99
e 50 100
e 51 52
e 51 53
e 51 54
e 51 55
e 51 57
e 51 58
e 51 59
e 51 60
e 51 61
e 51 62
e 51 64
e 51 65
e 51 67
e 51 68
e 51 69
e 51 71
e 51 72
e 51 73
e 51 74
e 51 75
e 51 76
e 51 77
e 51 78
e 51 79
e 51 80
e 51 81
e 51 83
e 51 86
e 51 87
e 51 88
e 51 89
e 51 92
e 51 93
e 51 96
e 51 97
e 51 99
e 52 53
e 52 58
e 52 60
e 52 62
e 52 63
e 52 66
e 52 68
e 52 71
e 52 73
e 52 74
e 52 75
e 52 77
e 52 78
e 52 79
e 52 84
e 52 85
e 52 86
e 52 88
e 52 90
e 52 92
e 52 94
e 52 95
e 52 97
e 52 98
e 52 99
e 52 100
e 53 54
e 53 55
e 53 56
e 53 57
e 53 59
e 53 60
e 53 63
e 53 64
e 53 65
e 53 66
e 53 67
e 53 68
e 53 70
e 53 71
e 53 74
e 53 77
e 53 79
e 53 80
e 53 81
e 53 82
e 53 84
e 53 85
e 53 88
e 53 89
e 53 90
e 53 91
e 53 92
e 53 93
e 53 94
e 53 95
e 53 96
e 53 97
e 53 98
e 53 99
e 53 100
e 54 57
e 54 58
e 54 59
e 54 61
e 54 62
e 54 63
e 54 65
e 54 67
e 54 69
e 54 70
e 54 71
e 54 73
e 54 75
e 54 78
e 54 80
e 54 81
e 54 84
e 54 86
e 54 87
e 54 88
e 54 89
e 54 91
e 54 94
e 54 95
e 54 96
e 54 99
e 54 100
e 55 58
e 55 59
e 55 60
e 55 61
e 55 66
e 55 67
e 55 68
e 55 73
e 55 75
e 55 78
e 55 79
e 55 80
e 55 82
e 55 84
e 55 85
e 55 86
e 55 88
e 55 89
e 55 91
e 55 93
e 55 94
e 55 95
e 55 97
e 55 98
e 55 100
e 56 57
e 56 60
e 56 61
e 56 62
e 56 64
e 56 65
e 56 66
e 56 68
e 56 69
e 56 71
e 56 72
e 56 75
e 56 77
e 56 78
e 56 79
e 56 80
e 56 82
e 56 83
e 56 84
e 56 85
e 56 87
e 56 88
e 56 92
e 56 94
e 56 95
e 56 98
e 56 100
e 57 59
e 57 60
e 57 61
e 57 62
e 57 63
e 57 66
e 57 67
e 57 70
e 57 72
e 57 75
e 57 76
e 57 78
e 57 79
e 57 80
e 57 82
e 57 83
e 57 84
e 57 86
e 57 87
e 57 88
e 57 91
e 57 95
e 57 97
e 57 99
e 58 59
e 58 61
e 58 65
e 58 66
e 58 69
e 58 71
e 58 74
e 58 77
e 58 80
e 58 81
e 58 82
e 58 83
e 58 84
e 58 85
e 58 86
e 58 87
e 58 88
e 58 91
e 58 92
e 58 93
e 58 95
e 58 96
e 58 97
e 58 98
e 59 60
e 59 61
e 59 64
e 59 66
e 59 67
e 59 68
e 59 70
e 59 72
e 59 73
e 59 74
e 59 75
e 59 76
e 59 77
e 59 78
e 59 79
e 59 80
e 59 82
e 59 83
e 59 84
e 59 85
e 59 86
e 59 87
e 59 88
e 59 89
e 59 90
e 59 91
e 59 92
e 59 95
e 59 97
e 59 100
e 60 61
e 60 63
e 60 64
e 60 65
e 60 68
e 60 71
e 60 73
e 60 75
e 60 78
e 60 80
e 60 82
e 60 84
e 60 86
e 60 87
e 60 90
e 60 91
e 60 92
e 60 93
e 60 94
e 60 95
e 60 96
e 60 98
e 60 99
e 61 67
e 61 69
e 61 71
e 61 73
e 61 78
e 61 79
e 61 80
e 61 82
e 61 85
e 61 86
e 61 88
e 61 91
e 61 92
e 61 96
e 61 100
e 62 66
e 62 68
e 62 70
e 62 71
e 62 74
e 62 76
e 62 81
e 62 82
e 62 83
e 62 84
e 62 85
e 62 89
e 62 90
e 62 92
e 62 93
e 62 94
e 62 95
e 62 96
e 62 99
e 62 100
e 63 65
e 63 66
e 63 67
e 63 68
e 63 69
e 63 70
e 63 75
e 63 76
e 63 77
e 63 78
e 63 79
e 63 80
e 63 83
e 63 85
e 63 86
e 63 87
e 63 88
e 63 89
e 63 90
e 63 91
e 63 92
e 63 95
e 63 96
e 63 97
e 63 100
e 64 65
e 64 66
e 64 68
e 64 71
e 64 73
e 64 74
e 64 75
e 64 76
e 64 77
e 64 79
e 64 80
e 64 82
e 64 83
e 64 85
e 64 87
e 64 90
e 64 91
e 64 94
e 64 95
e 64 97
e 64 98
e 64 99
e 65 66
e 65 68
e 65 69
e 65 73
e 65 74
e 65 75
e 65 76
e 65 79
e 65 80
e 65 81
e 65 84
e 65 86
e 65 87
e 65 90
e 65 91
e 65 97
e 66 67
e 66 71
e 66 73
e 66 74
e 66 76
e 66 77
e 66 78
e 66 79
e 66 80
e 66 83
e 66 84
e 66 88
e 66 90
e 66 91
e 66 92
e 66 93
e 66 94
e 66 96
e 66 97
e 66 100
e 67 68
e 67 69
e 67 71
e 67 73
e 67 74
e 67 75
e 67 76
e 67 77
e 67 81
e 67 82
e 67 83
e 67 84
e 67 85
e 67 86
e 67 88
e 67 89
e 67 90
e 67 91
e 67 92
e 67 93
e 67 95
e 67 96
e 67 97
e 67 98
e 68 69
e 68 70
e 68 71
e 68 75
e 68 76
e 68 77
e 68 78
e 68 80
e 68 82
e 68 83
e 68 84
e 68 87
e 68 89
e 68 93
e 68 94
e 68 96
e 68 97
e 68 98
e 68 100
e 69 73
e 69 74
e 69 75
e 69 77
e 69 79
e 69 80
e 69 83
e 69 86
e 69 88
e 69 91
e 69 93
e 69 97
e 69 98
e 69 99
e 70 72
e 70 73
e 70 75
e 70 76
e 70 78
e 70 79
e 70 80
e 70 82
e 70 83
e 70 84
e 70 85
e 70 86
e 70 89
e 70 93
e 70 94
e 70 95
e 70 97
e 70 100
e 71 72
e 71 73
e 71 75
e 71 76
e 71 78
e 71 80
e 71 81
e 71 84
e 71 85
e 71 86
e 71 87
e 71 88
e 71 92
e 71 93
e 71 94
e 71 95
e 71 96
e 71 98
e 71 100
e 72 73
e 72 74
e 72 76
e 72 78
e 72 79
e 72 81
e 72 82
e 72 83
e 72 84
e 72 85
e 72 86
e 72 87
e 72 88
e 72 89
e 72 91
e 72 93
e 72 96
e 72 97
e 72 98
e 72 99
e 73 74
e 73 75
e 73 79
e 73 81
e 73 82
e 73 84
e 73 85
e 73 89
e 73 93
e 73 94
e 73 95
e 73 96
e 73 98
e 73 100
e 74 75
e 74 77
e 74 78
e 74 79
e 74 80
e 74 82
e 74 83
e 74 85
e 74 86
e 74 88
e 74 89
e 74 90
e 74 91
e 74 94
e 74 97
e 74 98
e 74 99
e 75 76
e 75 78
e 75 84
e 75 85
e 75 87
e 75 90
e 75 92
e 75 95
e 75 96
e 75 97
e 75 99
e 75 100
e 76 77
e 76 78
e 76 79
e 76 84
e 76 85
e 76 88
e 76 91
e 76 96
e 76 97
e 76 99
e 76 100
e 77 78
e 77 81
e 77 82
e 77 84
e 77 86
e 77 87
e 77 88
e 77 89
e 77 90
e 77 92
e 77 93
e 77 94
e 77 95
e 77 97
e 77 99
e 77 100
e 78 80
e 78 81
e 78 82
e 78 83
e 78 84
e 78 85
e 78 88
e 78 89
e 78 91
e 78 92
e 78 93
e 78 96
e 79 80
e 79 83
e 79 85
e 79 86
e 79 87
e 79 88
e 79 91
e 79 92
e 79 96
e 79 100
e 80 81
e 80 83
e 80 84
e 80 87
e 80 89
e 80 94
e 80 95
e 80 96
e 80 97
e 80 98
e 81 82
e 81 83
e 81 84
e 81 85
e 81 86
e 81 87
e 81 88
e 81 89
e 81 90
e 81 91
e 81 94
e 81 95
e 81 96
e 81 99
e 82 89
e 82 90
e 82 91
e 82 92
e 82 93
e 82 94
e 82 96
e 82 97
e 82 98
e 82 99
e 82 100
e 83 84
e 83 86
e 83 87
e 83 90
e 83 93
e 83 94
e 83 95
e 83 97
e 83 98
e 84 85
e 84 89
e 84 91
e 84 92
e 84 93
e 84 98
e 85 88
e 85 89
e 85 90
e 85 91
e 85 93
e 85 94
e 85 98
e 86 89
e 86 92
e 87 88
e 87 91
e 87 92
e 87 93
e 87 96
e 87 99
e 88 89
e 88 92
e 88 93
e 88 94
e 88 95
e 88 97
e 89 91
e 89 92
e 89 94
e 89 95
e 89 97
e 89 98
e 89 100
e 90 92
e 90 93
e 90 94
e 90 95
e 90 98
e 90 100
e 91 92
e 91 93
e 91 94
e 92 93
e 92 94
e 92 95
e 92 96
e 93 94
e 93 95
e 93 96
e 93 97
e 93 99
e 93 100
e 94 95
e 94 96
e 94 99
e 95 96
e 95 99
e 95 100
e 96 97
e 96 98
e 96 99
e 96 100
e 97 98
e 97 99
e 97 100
e 98 99
e 99 100
